(declare-const |tmp___1':59| Int)
(declare-const |max':57| Int)
(declare-const havoc Int)
(declare-const |K:66| Int)
(declare-const |i':56| Int)
(declare-const |gas':58| Int)
(declare-const tmp___1 Int)
(declare-const |havoc:2| Int)
(assert (and (or (not (<= (- |K:66|) 0))
                   (= (+ (- |havoc:2|) |gas':58| |K:66|) 0))
               (or (not (<= (- |K:66|) 0))
                     (<= (+ |i':56| |max':57| (- |K:66|)) 0))
               (or (not (<= (- |K:66|) 0)) (<= (- |max':57|) 0))
               (or (not (<= (- |K:66|) 0)) (<= (- |i':56|) 0))
               (or (and (= |K:66| 0) (= (+ (- |tmp___1':59|) tmp___1) 0)
                          (= (+ |havoc:2| (- |gas':58|)) 0)
                          (= (- |max':57|) 0) (= (- |i':56|) 0))
                     (and (<= (+ (- |K:66|) 1) 0) (<= (+ (- havoc) 1) 0)
                            (<= (+ (- havoc) |i':56|) 0)
                            (<= (+ (- havoc) 1) 0) (<= (- |i':56|) 0)
                            (<= (- |max':57|) 0))) (<= (- |K:66|) 0)
               (<= (- |max':57|) 0) (<= (- |i':56|) 0)
               (<= (+ havoc (- |i':56|)) 0) (<= (+ (- |max':57|) 2500) 0)))
(check-sat)
